p cnf 810 960
59 60 1 91 92 0
59 60 1 91 -92 0
59 60 1 -91 93 0
59 60 1 -91 -93 0
-59 -60 1 94 95 0
-59 -60 1 94 -95 0
-59 -60 1 -94 96 0
-59 -60 1 -94 -96 0
59 -60 -1 97 98 0
59 -60 -1 97 -98 0
59 -60 -1 -97 99 0
59 -60 -1 -97 -99 0
-59 60 -1 100 101 0
-59 60 -1 100 -101 0
-59 60 -1 -100 102 0
-59 60 -1 -100 -102 0
1 61 2 103 104 0
1 61 2 103 -104 0
1 61 2 -103 105 0
1 61 2 -103 -105 0
-1 -61 2 106 107 0
-1 -61 2 106 -107 0
-1 -61 2 -106 108 0
-1 -61 2 -106 -108 0
1 -61 -2 109 110 0
1 -61 -2 109 -110 0
1 -61 -2 -109 111 0
1 -61 -2 -109 -111 0
-1 61 -2 112 113 0
-1 61 -2 112 -113 0
-1 61 -2 -112 114 0
-1 61 -2 -112 -114 0
2 62 3 115 116 0
2 62 3 115 -116 0
2 62 3 -115 117 0
2 62 3 -115 -117 0
-2 -62 3 118 119 0
-2 -62 3 118 -119 0
-2 -62 3 -118 120 0
-2 -62 3 -118 -120 0
2 -62 -3 121 122 0
2 -62 -3 121 -122 0
2 -62 -3 -121 123 0
2 -62 -3 -121 -123 0
-2 62 -3 124 125 0
-2 62 -3 124 -125 0
-2 62 -3 -124 126 0
-2 62 -3 -124 -126 0
3 63 4 127 128 0
3 63 4 127 -128 0
3 63 4 -127 129 0
3 63 4 -127 -129 0
-3 -63 4 130 131 0
-3 -63 4 130 -131 0
-3 -63 4 -130 132 0
-3 -63 4 -130 -132 0
3 -63 -4 133 134 0
3 -63 -4 133 -134 0
3 -63 -4 -133 135 0
3 -63 -4 -133 -135 0
-3 63 -4 136 137 0
-3 63 -4 136 -137 0
-3 63 -4 -136 138 0
-3 63 -4 -136 -138 0
4 64 5 139 140 0
4 64 5 139 -140 0
4 64 5 -139 141 0
4 64 5 -139 -141 0
-4 -64 5 142 143 0
-4 -64 5 142 -143 0
-4 -64 5 -142 144 0
-4 -64 5 -142 -144 0
4 -64 -5 145 146 0
4 -64 -5 145 -146 0
4 -64 -5 -145 147 0
4 -64 -5 -145 -147 0
-4 64 -5 148 149 0
-4 64 -5 148 -149 0
-4 64 -5 -148 150 0
-4 64 -5 -148 -150 0
5 65 6 151 152 0
5 65 6 151 -152 0
5 65 6 -151 153 0
5 65 6 -151 -153 0
-5 -65 6 154 155 0
-5 -65 6 154 -155 0
-5 -65 6 -154 156 0
-5 -65 6 -154 -156 0
5 -65 -6 157 158 0
5 -65 -6 157 -158 0
5 -65 -6 -157 159 0
5 -65 -6 -157 -159 0
-5 65 -6 160 161 0
-5 65 -6 160 -161 0
-5 65 -6 -160 162 0
-5 65 -6 -160 -162 0
6 66 7 163 164 0
6 66 7 163 -164 0
6 66 7 -163 165 0
6 66 7 -163 -165 0
-6 -66 7 166 167 0
-6 -66 7 166 -167 0
-6 -66 7 -166 168 0
-6 -66 7 -166 -168 0
6 -66 -7 169 170 0
6 -66 -7 169 -170 0
6 -66 -7 -169 171 0
6 -66 -7 -169 -171 0
-6 66 -7 172 173 0
-6 66 -7 172 -173 0
-6 66 -7 -172 174 0
-6 66 -7 -172 -174 0
7 67 8 175 176 0
7 67 8 175 -176 0
7 67 8 -175 177 0
7 67 8 -175 -177 0
-7 -67 8 178 179 0
-7 -67 8 178 -179 0
-7 -67 8 -178 180 0
-7 -67 8 -178 -180 0
7 -67 -8 181 182 0
7 -67 -8 181 -182 0
7 -67 -8 -181 183 0
7 -67 -8 -181 -183 0
-7 67 -8 184 185 0
-7 67 -8 184 -185 0
-7 67 -8 -184 186 0
-7 67 -8 -184 -186 0
8 68 9 187 188 0
8 68 9 187 -188 0
8 68 9 -187 189 0
8 68 9 -187 -189 0
-8 -68 9 190 191 0
-8 -68 9 190 -191 0
-8 -68 9 -190 192 0
-8 -68 9 -190 -192 0
8 -68 -9 193 194 0
8 -68 -9 193 -194 0
8 -68 -9 -193 195 0
8 -68 -9 -193 -195 0
-8 68 -9 196 197 0
-8 68 -9 196 -197 0
-8 68 -9 -196 198 0
-8 68 -9 -196 -198 0
9 69 10 199 200 0
9 69 10 199 -200 0
9 69 10 -199 201 0
9 69 10 -199 -201 0
-9 -69 10 202 203 0
-9 -69 10 202 -203 0
-9 -69 10 -202 204 0
-9 -69 10 -202 -204 0
9 -69 -10 205 206 0
9 -69 -10 205 -206 0
9 -69 -10 -205 207 0
9 -69 -10 -205 -207 0
-9 69 -10 208 209 0
-9 69 -10 208 -209 0
-9 69 -10 -208 210 0
-9 69 -10 -208 -210 0
10 70 11 211 212 0
10 70 11 211 -212 0
10 70 11 -211 213 0
10 70 11 -211 -213 0
-10 -70 11 214 215 0
-10 -70 11 214 -215 0
-10 -70 11 -214 216 0
-10 -70 11 -214 -216 0
10 -70 -11 217 218 0
10 -70 -11 217 -218 0
10 -70 -11 -217 219 0
10 -70 -11 -217 -219 0
-10 70 -11 220 221 0
-10 70 -11 220 -221 0
-10 70 -11 -220 222 0
-10 70 -11 -220 -222 0
11 71 12 223 224 0
11 71 12 223 -224 0
11 71 12 -223 225 0
11 71 12 -223 -225 0
-11 -71 12 226 227 0
-11 -71 12 226 -227 0
-11 -71 12 -226 228 0
-11 -71 12 -226 -228 0
11 -71 -12 229 230 0
11 -71 -12 229 -230 0
11 -71 -12 -229 231 0
11 -71 -12 -229 -231 0
-11 71 -12 232 233 0
-11 71 -12 232 -233 0
-11 71 -12 -232 234 0
-11 71 -12 -232 -234 0
12 72 13 235 236 0
12 72 13 235 -236 0
12 72 13 -235 237 0
12 72 13 -235 -237 0
-12 -72 13 238 239 0
-12 -72 13 238 -239 0
-12 -72 13 -238 240 0
-12 -72 13 -238 -240 0
12 -72 -13 241 242 0
12 -72 -13 241 -242 0
12 -72 -13 -241 243 0
12 -72 -13 -241 -243 0
-12 72 -13 244 245 0
-12 72 -13 244 -245 0
-12 72 -13 -244 246 0
-12 72 -13 -244 -246 0
13 73 14 247 248 0
13 73 14 247 -248 0
13 73 14 -247 249 0
13 73 14 -247 -249 0
-13 -73 14 250 251 0
-13 -73 14 250 -251 0
-13 -73 14 -250 252 0
-13 -73 14 -250 -252 0
13 -73 -14 253 254 0
13 -73 -14 253 -254 0
13 -73 -14 -253 255 0
13 -73 -14 -253 -255 0
-13 73 -14 256 257 0
-13 73 -14 256 -257 0
-13 73 -14 -256 258 0
-13 73 -14 -256 -258 0
14 74 15 259 260 0
14 74 15 259 -260 0
14 74 15 -259 261 0
14 74 15 -259 -261 0
-14 -74 15 262 263 0
-14 -74 15 262 -263 0
-14 -74 15 -262 264 0
-14 -74 15 -262 -264 0
14 -74 -15 265 266 0
14 -74 -15 265 -266 0
14 -74 -15 -265 267 0
14 -74 -15 -265 -267 0
-14 74 -15 268 269 0
-14 74 -15 268 -269 0
-14 74 -15 -268 270 0
-14 74 -15 -268 -270 0
15 75 16 271 272 0
15 75 16 271 -272 0
15 75 16 -271 273 0
15 75 16 -271 -273 0
-15 -75 16 274 275 0
-15 -75 16 274 -275 0
-15 -75 16 -274 276 0
-15 -75 16 -274 -276 0
15 -75 -16 277 278 0
15 -75 -16 277 -278 0
15 -75 -16 -277 279 0
15 -75 -16 -277 -279 0
-15 75 -16 280 281 0
-15 75 -16 280 -281 0
-15 75 -16 -280 282 0
-15 75 -16 -280 -282 0
16 76 17 283 284 0
16 76 17 283 -284 0
16 76 17 -283 285 0
16 76 17 -283 -285 0
-16 -76 17 286 287 0
-16 -76 17 286 -287 0
-16 -76 17 -286 288 0
-16 -76 17 -286 -288 0
16 -76 -17 289 290 0
16 -76 -17 289 -290 0
16 -76 -17 -289 291 0
16 -76 -17 -289 -291 0
-16 76 -17 292 293 0
-16 76 -17 292 -293 0
-16 76 -17 -292 294 0
-16 76 -17 -292 -294 0
17 77 18 295 296 0
17 77 18 295 -296 0
17 77 18 -295 297 0
17 77 18 -295 -297 0
-17 -77 18 298 299 0
-17 -77 18 298 -299 0
-17 -77 18 -298 300 0
-17 -77 18 -298 -300 0
17 -77 -18 301 302 0
17 -77 -18 301 -302 0
17 -77 -18 -301 303 0
17 -77 -18 -301 -303 0
-17 77 -18 304 305 0
-17 77 -18 304 -305 0
-17 77 -18 -304 306 0
-17 77 -18 -304 -306 0
18 78 19 307 308 0
18 78 19 307 -308 0
18 78 19 -307 309 0
18 78 19 -307 -309 0
-18 -78 19 310 311 0
-18 -78 19 310 -311 0
-18 -78 19 -310 312 0
-18 -78 19 -310 -312 0
18 -78 -19 313 314 0
18 -78 -19 313 -314 0
18 -78 -19 -313 315 0
18 -78 -19 -313 -315 0
-18 78 -19 316 317 0
-18 78 -19 316 -317 0
-18 78 -19 -316 318 0
-18 78 -19 -316 -318 0
19 79 20 319 320 0
19 79 20 319 -320 0
19 79 20 -319 321 0
19 79 20 -319 -321 0
-19 -79 20 322 323 0
-19 -79 20 322 -323 0
-19 -79 20 -322 324 0
-19 -79 20 -322 -324 0
19 -79 -20 325 326 0
19 -79 -20 325 -326 0
19 -79 -20 -325 327 0
19 -79 -20 -325 -327 0
-19 79 -20 328 329 0
-19 79 -20 328 -329 0
-19 79 -20 -328 330 0
-19 79 -20 -328 -330 0
20 80 21 331 332 0
20 80 21 331 -332 0
20 80 21 -331 333 0
20 80 21 -331 -333 0
-20 -80 21 334 335 0
-20 -80 21 334 -335 0
-20 -80 21 -334 336 0
-20 -80 21 -334 -336 0
20 -80 -21 337 338 0
20 -80 -21 337 -338 0
20 -80 -21 -337 339 0
20 -80 -21 -337 -339 0
-20 80 -21 340 341 0
-20 80 -21 340 -341 0
-20 80 -21 -340 342 0
-20 80 -21 -340 -342 0
21 81 22 343 344 0
21 81 22 343 -344 0
21 81 22 -343 345 0
21 81 22 -343 -345 0
-21 -81 22 346 347 0
-21 -81 22 346 -347 0
-21 -81 22 -346 348 0
-21 -81 22 -346 -348 0
21 -81 -22 349 350 0
21 -81 -22 349 -350 0
21 -81 -22 -349 351 0
21 -81 -22 -349 -351 0
-21 81 -22 352 353 0
-21 81 -22 352 -353 0
-21 81 -22 -352 354 0
-21 81 -22 -352 -354 0
22 82 23 355 356 0
22 82 23 355 -356 0
22 82 23 -355 357 0
22 82 23 -355 -357 0
-22 -82 23 358 359 0
-22 -82 23 358 -359 0
-22 -82 23 -358 360 0
-22 -82 23 -358 -360 0
22 -82 -23 361 362 0
22 -82 -23 361 -362 0
22 -82 -23 -361 363 0
22 -82 -23 -361 -363 0
-22 82 -23 364 365 0
-22 82 -23 364 -365 0
-22 82 -23 -364 366 0
-22 82 -23 -364 -366 0
23 83 24 367 368 0
23 83 24 367 -368 0
23 83 24 -367 369 0
23 83 24 -367 -369 0
-23 -83 24 370 371 0
-23 -83 24 370 -371 0
-23 -83 24 -370 372 0
-23 -83 24 -370 -372 0
23 -83 -24 373 374 0
23 -83 -24 373 -374 0
23 -83 -24 -373 375 0
23 -83 -24 -373 -375 0
-23 83 -24 376 377 0
-23 83 -24 376 -377 0
-23 83 -24 -376 378 0
-23 83 -24 -376 -378 0
24 84 25 379 380 0
24 84 25 379 -380 0
24 84 25 -379 381 0
24 84 25 -379 -381 0
-24 -84 25 382 383 0
-24 -84 25 382 -383 0
-24 -84 25 -382 384 0
-24 -84 25 -382 -384 0
24 -84 -25 385 386 0
24 -84 -25 385 -386 0
24 -84 -25 -385 387 0
24 -84 -25 -385 -387 0
-24 84 -25 388 389 0
-24 84 -25 388 -389 0
-24 84 -25 -388 390 0
-24 84 -25 -388 -390 0
25 85 26 391 392 0
25 85 26 391 -392 0
25 85 26 -391 393 0
25 85 26 -391 -393 0
-25 -85 26 394 395 0
-25 -85 26 394 -395 0
-25 -85 26 -394 396 0
-25 -85 26 -394 -396 0
25 -85 -26 397 398 0
25 -85 -26 397 -398 0
25 -85 -26 -397 399 0
25 -85 -26 -397 -399 0
-25 85 -26 400 401 0
-25 85 -26 400 -401 0
-25 85 -26 -400 402 0
-25 85 -26 -400 -402 0
26 86 27 403 404 0
26 86 27 403 -404 0
26 86 27 -403 405 0
26 86 27 -403 -405 0
-26 -86 27 406 407 0
-26 -86 27 406 -407 0
-26 -86 27 -406 408 0
-26 -86 27 -406 -408 0
26 -86 -27 409 410 0
26 -86 -27 409 -410 0
26 -86 -27 -409 411 0
26 -86 -27 -409 -411 0
-26 86 -27 412 413 0
-26 86 -27 412 -413 0
-26 86 -27 -412 414 0
-26 86 -27 -412 -414 0
27 87 28 415 416 0
27 87 28 415 -416 0
27 87 28 -415 417 0
27 87 28 -415 -417 0
-27 -87 28 418 419 0
-27 -87 28 418 -419 0
-27 -87 28 -418 420 0
-27 -87 28 -418 -420 0
27 -87 -28 421 422 0
27 -87 -28 421 -422 0
27 -87 -28 -421 423 0
27 -87 -28 -421 -423 0
-27 87 -28 424 425 0
-27 87 -28 424 -425 0
-27 87 -28 -424 426 0
-27 87 -28 -424 -426 0
28 88 29 427 428 0
28 88 29 427 -428 0
28 88 29 -427 429 0
28 88 29 -427 -429 0
-28 -88 29 430 431 0
-28 -88 29 430 -431 0
-28 -88 29 -430 432 0
-28 -88 29 -430 -432 0
28 -88 -29 433 434 0
28 -88 -29 433 -434 0
28 -88 -29 -433 435 0
28 -88 -29 -433 -435 0
-28 88 -29 436 437 0
-28 88 -29 436 -437 0
-28 88 -29 -436 438 0
-28 88 -29 -436 -438 0
29 89 90 439 440 0
29 89 90 439 -440 0
29 89 90 -439 441 0
29 89 90 -439 -441 0
-29 -89 90 442 443 0
-29 -89 90 442 -443 0
-29 -89 90 -442 444 0
-29 -89 90 -442 -444 0
29 -89 -90 445 446 0
29 -89 -90 445 -446 0
29 -89 -90 -445 447 0
29 -89 -90 -445 -447 0
-29 89 -90 448 449 0
-29 89 -90 448 -449 0
-29 89 -90 -448 450 0
-29 89 -90 -448 -450 0
30 89 90 451 452 0
30 89 90 451 -452 0
30 89 90 -451 453 0
30 89 90 -451 -453 0
-30 -89 90 454 455 0
-30 -89 90 454 -455 0
-30 -89 90 -454 456 0
-30 -89 90 -454 -456 0
30 -89 -90 457 458 0
30 -89 -90 457 -458 0
30 -89 -90 -457 459 0
30 -89 -90 -457 -459 0
-30 89 -90 460 461 0
-30 89 -90 460 -461 0
-30 89 -90 -460 462 0
-30 89 -90 -460 -462 0
31 88 30 463 464 0
31 88 30 463 -464 0
31 88 30 -463 465 0
31 88 30 -463 -465 0
-31 -88 30 466 467 0
-31 -88 30 466 -467 0
-31 -88 30 -466 468 0
-31 -88 30 -466 -468 0
31 -88 -30 469 470 0
31 -88 -30 469 -470 0
31 -88 -30 -469 471 0
31 -88 -30 -469 -471 0
-31 88 -30 472 473 0
-31 88 -30 472 -473 0
-31 88 -30 -472 474 0
-31 88 -30 -472 -474 0
32 87 31 475 476 0
32 87 31 475 -476 0
32 87 31 -475 477 0
32 87 31 -475 -477 0
-32 -87 31 478 479 0
-32 -87 31 478 -479 0
-32 -87 31 -478 480 0
-32 -87 31 -478 -480 0
32 -87 -31 481 482 0
32 -87 -31 481 -482 0
32 -87 -31 -481 483 0
32 -87 -31 -481 -483 0
-32 87 -31 484 485 0
-32 87 -31 484 -485 0
-32 87 -31 -484 486 0
-32 87 -31 -484 -486 0
33 86 32 487 488 0
33 86 32 487 -488 0
33 86 32 -487 489 0
33 86 32 -487 -489 0
-33 -86 32 490 491 0
-33 -86 32 490 -491 0
-33 -86 32 -490 492 0
-33 -86 32 -490 -492 0
33 -86 -32 493 494 0
33 -86 -32 493 -494 0
33 -86 -32 -493 495 0
33 -86 -32 -493 -495 0
-33 86 -32 496 497 0
-33 86 -32 496 -497 0
-33 86 -32 -496 498 0
-33 86 -32 -496 -498 0
34 85 33 499 500 0
34 85 33 499 -500 0
34 85 33 -499 501 0
34 85 33 -499 -501 0
-34 -85 33 502 503 0
-34 -85 33 502 -503 0
-34 -85 33 -502 504 0
-34 -85 33 -502 -504 0
34 -85 -33 505 506 0
34 -85 -33 505 -506 0
34 -85 -33 -505 507 0
34 -85 -33 -505 -507 0
-34 85 -33 508 509 0
-34 85 -33 508 -509 0
-34 85 -33 -508 510 0
-34 85 -33 -508 -510 0
35 84 34 511 512 0
35 84 34 511 -512 0
35 84 34 -511 513 0
35 84 34 -511 -513 0
-35 -84 34 514 515 0
-35 -84 34 514 -515 0
-35 -84 34 -514 516 0
-35 -84 34 -514 -516 0
35 -84 -34 517 518 0
35 -84 -34 517 -518 0
35 -84 -34 -517 519 0
35 -84 -34 -517 -519 0
-35 84 -34 520 521 0
-35 84 -34 520 -521 0
-35 84 -34 -520 522 0
-35 84 -34 -520 -522 0
36 83 35 523 524 0
36 83 35 523 -524 0
36 83 35 -523 525 0
36 83 35 -523 -525 0
-36 -83 35 526 527 0
-36 -83 35 526 -527 0
-36 -83 35 -526 528 0
-36 -83 35 -526 -528 0
36 -83 -35 529 530 0
36 -83 -35 529 -530 0
36 -83 -35 -529 531 0
36 -83 -35 -529 -531 0
-36 83 -35 532 533 0
-36 83 -35 532 -533 0
-36 83 -35 -532 534 0
-36 83 -35 -532 -534 0
37 82 36 535 536 0
37 82 36 535 -536 0
37 82 36 -535 537 0
37 82 36 -535 -537 0
-37 -82 36 538 539 0
-37 -82 36 538 -539 0
-37 -82 36 -538 540 0
-37 -82 36 -538 -540 0
37 -82 -36 541 542 0
37 -82 -36 541 -542 0
37 -82 -36 -541 543 0
37 -82 -36 -541 -543 0
-37 82 -36 544 545 0
-37 82 -36 544 -545 0
-37 82 -36 -544 546 0
-37 82 -36 -544 -546 0
38 81 37 547 548 0
38 81 37 547 -548 0
38 81 37 -547 549 0
38 81 37 -547 -549 0
-38 -81 37 550 551 0
-38 -81 37 550 -551 0
-38 -81 37 -550 552 0
-38 -81 37 -550 -552 0
38 -81 -37 553 554 0
38 -81 -37 553 -554 0
38 -81 -37 -553 555 0
38 -81 -37 -553 -555 0
-38 81 -37 556 557 0
-38 81 -37 556 -557 0
-38 81 -37 -556 558 0
-38 81 -37 -556 -558 0
39 80 38 559 560 0
39 80 38 559 -560 0
39 80 38 -559 561 0
39 80 38 -559 -561 0
-39 -80 38 562 563 0
-39 -80 38 562 -563 0
-39 -80 38 -562 564 0
-39 -80 38 -562 -564 0
39 -80 -38 565 566 0
39 -80 -38 565 -566 0
39 -80 -38 -565 567 0
39 -80 -38 -565 -567 0
-39 80 -38 568 569 0
-39 80 -38 568 -569 0
-39 80 -38 -568 570 0
-39 80 -38 -568 -570 0
40 79 39 571 572 0
40 79 39 571 -572 0
40 79 39 -571 573 0
40 79 39 -571 -573 0
-40 -79 39 574 575 0
-40 -79 39 574 -575 0
-40 -79 39 -574 576 0
-40 -79 39 -574 -576 0
40 -79 -39 577 578 0
40 -79 -39 577 -578 0
40 -79 -39 -577 579 0
40 -79 -39 -577 -579 0
-40 79 -39 580 581 0
-40 79 -39 580 -581 0
-40 79 -39 -580 582 0
-40 79 -39 -580 -582 0
41 78 40 583 584 0
41 78 40 583 -584 0
41 78 40 -583 585 0
41 78 40 -583 -585 0
-41 -78 40 586 587 0
-41 -78 40 586 -587 0
-41 -78 40 -586 588 0
-41 -78 40 -586 -588 0
41 -78 -40 589 590 0
41 -78 -40 589 -590 0
41 -78 -40 -589 591 0
41 -78 -40 -589 -591 0
-41 78 -40 592 593 0
-41 78 -40 592 -593 0
-41 78 -40 -592 594 0
-41 78 -40 -592 -594 0
42 77 41 595 596 0
42 77 41 595 -596 0
42 77 41 -595 597 0
42 77 41 -595 -597 0
-42 -77 41 598 599 0
-42 -77 41 598 -599 0
-42 -77 41 -598 600 0
-42 -77 41 -598 -600 0
42 -77 -41 601 602 0
42 -77 -41 601 -602 0
42 -77 -41 -601 603 0
42 -77 -41 -601 -603 0
-42 77 -41 604 605 0
-42 77 -41 604 -605 0
-42 77 -41 -604 606 0
-42 77 -41 -604 -606 0
43 76 42 607 608 0
43 76 42 607 -608 0
43 76 42 -607 609 0
43 76 42 -607 -609 0
-43 -76 42 610 611 0
-43 -76 42 610 -611 0
-43 -76 42 -610 612 0
-43 -76 42 -610 -612 0
43 -76 -42 613 614 0
43 -76 -42 613 -614 0
43 -76 -42 -613 615 0
43 -76 -42 -613 -615 0
-43 76 -42 616 617 0
-43 76 -42 616 -617 0
-43 76 -42 -616 618 0
-43 76 -42 -616 -618 0
44 75 43 619 620 0
44 75 43 619 -620 0
44 75 43 -619 621 0
44 75 43 -619 -621 0
-44 -75 43 622 623 0
-44 -75 43 622 -623 0
-44 -75 43 -622 624 0
-44 -75 43 -622 -624 0
44 -75 -43 625 626 0
44 -75 -43 625 -626 0
44 -75 -43 -625 627 0
44 -75 -43 -625 -627 0
-44 75 -43 628 629 0
-44 75 -43 628 -629 0
-44 75 -43 -628 630 0
-44 75 -43 -628 -630 0
45 74 44 631 632 0
45 74 44 631 -632 0
45 74 44 -631 633 0
45 74 44 -631 -633 0
-45 -74 44 634 635 0
-45 -74 44 634 -635 0
-45 -74 44 -634 636 0
-45 -74 44 -634 -636 0
45 -74 -44 637 638 0
45 -74 -44 637 -638 0
45 -74 -44 -637 639 0
45 -74 -44 -637 -639 0
-45 74 -44 640 641 0
-45 74 -44 640 -641 0
-45 74 -44 -640 642 0
-45 74 -44 -640 -642 0
46 73 45 643 644 0
46 73 45 643 -644 0
46 73 45 -643 645 0
46 73 45 -643 -645 0
-46 -73 45 646 647 0
-46 -73 45 646 -647 0
-46 -73 45 -646 648 0
-46 -73 45 -646 -648 0
46 -73 -45 649 650 0
46 -73 -45 649 -650 0
46 -73 -45 -649 651 0
46 -73 -45 -649 -651 0
-46 73 -45 652 653 0
-46 73 -45 652 -653 0
-46 73 -45 -652 654 0
-46 73 -45 -652 -654 0
47 72 46 655 656 0
47 72 46 655 -656 0
47 72 46 -655 657 0
47 72 46 -655 -657 0
-47 -72 46 658 659 0
-47 -72 46 658 -659 0
-47 -72 46 -658 660 0
-47 -72 46 -658 -660 0
47 -72 -46 661 662 0
47 -72 -46 661 -662 0
47 -72 -46 -661 663 0
47 -72 -46 -661 -663 0
-47 72 -46 664 665 0
-47 72 -46 664 -665 0
-47 72 -46 -664 666 0
-47 72 -46 -664 -666 0
48 71 47 667 668 0
48 71 47 667 -668 0
48 71 47 -667 669 0
48 71 47 -667 -669 0
-48 -71 47 670 671 0
-48 -71 47 670 -671 0
-48 -71 47 -670 672 0
-48 -71 47 -670 -672 0
48 -71 -47 673 674 0
48 -71 -47 673 -674 0
48 -71 -47 -673 675 0
48 -71 -47 -673 -675 0
-48 71 -47 676 677 0
-48 71 -47 676 -677 0
-48 71 -47 -676 678 0
-48 71 -47 -676 -678 0
49 70 48 679 680 0
49 70 48 679 -680 0
49 70 48 -679 681 0
49 70 48 -679 -681 0
-49 -70 48 682 683 0
-49 -70 48 682 -683 0
-49 -70 48 -682 684 0
-49 -70 48 -682 -684 0
49 -70 -48 685 686 0
49 -70 -48 685 -686 0
49 -70 -48 -685 687 0
49 -70 -48 -685 -687 0
-49 70 -48 688 689 0
-49 70 -48 688 -689 0
-49 70 -48 -688 690 0
-49 70 -48 -688 -690 0
50 69 49 691 692 0
50 69 49 691 -692 0
50 69 49 -691 693 0
50 69 49 -691 -693 0
-50 -69 49 694 695 0
-50 -69 49 694 -695 0
-50 -69 49 -694 696 0
-50 -69 49 -694 -696 0
50 -69 -49 697 698 0
50 -69 -49 697 -698 0
50 -69 -49 -697 699 0
50 -69 -49 -697 -699 0
-50 69 -49 700 701 0
-50 69 -49 700 -701 0
-50 69 -49 -700 702 0
-50 69 -49 -700 -702 0
51 68 50 703 704 0
51 68 50 703 -704 0
51 68 50 -703 705 0
51 68 50 -703 -705 0
-51 -68 50 706 707 0
-51 -68 50 706 -707 0
-51 -68 50 -706 708 0
-51 -68 50 -706 -708 0
51 -68 -50 709 710 0
51 -68 -50 709 -710 0
51 -68 -50 -709 711 0
51 -68 -50 -709 -711 0
-51 68 -50 712 713 0
-51 68 -50 712 -713 0
-51 68 -50 -712 714 0
-51 68 -50 -712 -714 0
52 67 51 715 716 0
52 67 51 715 -716 0
52 67 51 -715 717 0
52 67 51 -715 -717 0
-52 -67 51 718 719 0
-52 -67 51 718 -719 0
-52 -67 51 -718 720 0
-52 -67 51 -718 -720 0
52 -67 -51 721 722 0
52 -67 -51 721 -722 0
52 -67 -51 -721 723 0
52 -67 -51 -721 -723 0
-52 67 -51 724 725 0
-52 67 -51 724 -725 0
-52 67 -51 -724 726 0
-52 67 -51 -724 -726 0
53 66 52 727 728 0
53 66 52 727 -728 0
53 66 52 -727 729 0
53 66 52 -727 -729 0
-53 -66 52 730 731 0
-53 -66 52 730 -731 0
-53 -66 52 -730 732 0
-53 -66 52 -730 -732 0
53 -66 -52 733 734 0
53 -66 -52 733 -734 0
53 -66 -52 -733 735 0
53 -66 -52 -733 -735 0
-53 66 -52 736 737 0
-53 66 -52 736 -737 0
-53 66 -52 -736 738 0
-53 66 -52 -736 -738 0
54 65 53 739 740 0
54 65 53 739 -740 0
54 65 53 -739 741 0
54 65 53 -739 -741 0
-54 -65 53 742 743 0
-54 -65 53 742 -743 0
-54 -65 53 -742 744 0
-54 -65 53 -742 -744 0
54 -65 -53 745 746 0
54 -65 -53 745 -746 0
54 -65 -53 -745 747 0
54 -65 -53 -745 -747 0
-54 65 -53 748 749 0
-54 65 -53 748 -749 0
-54 65 -53 -748 750 0
-54 65 -53 -748 -750 0
55 64 54 751 752 0
55 64 54 751 -752 0
55 64 54 -751 753 0
55 64 54 -751 -753 0
-55 -64 54 754 755 0
-55 -64 54 754 -755 0
-55 -64 54 -754 756 0
-55 -64 54 -754 -756 0
55 -64 -54 757 758 0
55 -64 -54 757 -758 0
55 -64 -54 -757 759 0
55 -64 -54 -757 -759 0
-55 64 -54 760 761 0
-55 64 -54 760 -761 0
-55 64 -54 -760 762 0
-55 64 -54 -760 -762 0
56 63 55 763 764 0
56 63 55 763 -764 0
56 63 55 -763 765 0
56 63 55 -763 -765 0
-56 -63 55 766 767 0
-56 -63 55 766 -767 0
-56 -63 55 -766 768 0
-56 -63 55 -766 -768 0
56 -63 -55 769 770 0
56 -63 -55 769 -770 0
56 -63 -55 -769 771 0
56 -63 -55 -769 -771 0
-56 63 -55 772 773 0
-56 63 -55 772 -773 0
-56 63 -55 -772 774 0
-56 63 -55 -772 -774 0
57 62 56 775 776 0
57 62 56 775 -776 0
57 62 56 -775 777 0
57 62 56 -775 -777 0
-57 -62 56 778 779 0
-57 -62 56 778 -779 0
-57 -62 56 -778 780 0
-57 -62 56 -778 -780 0
57 -62 -56 781 782 0
57 -62 -56 781 -782 0
57 -62 -56 -781 783 0
57 -62 -56 -781 -783 0
-57 62 -56 784 785 0
-57 62 -56 784 -785 0
-57 62 -56 -784 786 0
-57 62 -56 -784 -786 0
58 61 57 787 788 0
58 61 57 787 -788 0
58 61 57 -787 789 0
58 61 57 -787 -789 0
-58 -61 57 790 791 0
-58 -61 57 790 -791 0
-58 -61 57 -790 792 0
-58 -61 57 -790 -792 0
58 -61 -57 793 794 0
58 -61 -57 793 -794 0
58 -61 -57 -793 795 0
58 -61 -57 -793 -795 0
-58 61 -57 796 797 0
-58 61 -57 796 -797 0
-58 61 -57 -796 798 0
-58 61 -57 -796 -798 0
59 60 -58 799 800 0
59 60 -58 799 -800 0
59 60 -58 -799 801 0
59 60 -58 -799 -801 0
-59 -60 -58 802 803 0
-59 -60 -58 802 -803 0
-59 -60 -58 -802 804 0
-59 -60 -58 -802 -804 0
59 -60 58 805 806 0
59 -60 58 805 -806 0
59 -60 58 -805 807 0
59 -60 58 -805 -807 0
-59 60 58 808 809 0
-59 60 58 808 -809 0
-59 60 58 -808 810 0
-59 60 58 -808 -810 0

